
Gurobi 7.0.1 (win64, Python) logging started 11/13/16 20:43:09


Gurobi 7.0.1 (win64, Python) logging started 11/13/16 20:43:35

Optimize a model with 53280 rows, 810000 columns and 6479100 nonzeros
Variable types: 0 continuous, 810000 integer (810000 binary)
Coefficient statistics:
  Matrix range     [1e+00, 2e+00]
  Objective range  [4e-04, 2e+02]
  Bounds range     [1e+00, 1e+00]
  RHS range        [1e+00, 1e+00]
Found heuristic solution: objective 167.438
Presolve removed 53100 rows and 56580 columns (presolve time = 6s) ...
Presolve removed 53220 rows and 620775 columns (presolve time = 11s) ...
Presolve removed 53220 rows and 620775 columns
Presolve time: 11.15s
Presolved: 60 rows, 189225 columns, 756900 nonzeros
Found heuristic solution: objective 58.6855671
Variable types: 0 continuous, 189225 integer (189225 binary)

Root simplex log...

Iteration    Objective       Primal Inf.    Dual Inf.      Time
       0    1.2254629e+06   7.568400e+05   0.000000e+00     12s

Starting sifting (using dual simplex for sub-problems)...

    Iter     Pivots    Primal Obj      Dual Obj        Time
       0          0     infinity     -1.2254629e+06     12s
       1         60   7.5257477e+11  -1.2217109e+06     12s
       2        170   7.4930677e+11  -1.2195863e+06     12s
       3        275   7.4630277e+11  -1.2173104e+06     12s
       4        383   7.4338277e+11  -1.2145392e+06     12s
       5        496   7.4009077e+11  -1.2114325e+06     12s
       6        606   7.3681077e+11  -1.2090195e+06     12s
       7        717   7.3336677e+11  -1.2067253e+06     12s
       8        835   7.2996277e+11  -1.2044236e+06     12s
       9        951   7.2679878e+11  -1.2021578e+06     13s
      10       1063   7.2373078e+11  -1.2002488e+06     13s
      11       1183   7.2068278e+11  -1.1980908e+06     13s
      12       1301   7.1719078e+11  -1.1958231e+06     13s
      13       1426   7.1359478e+11  -1.1931480e+06     13s
      14       1550   7.0957878e+11  -1.1904633e+06     13s
      15       1674   7.0549478e+11  -1.1874588e+06     13s
      16       1796   7.0080278e+11  -1.1835053e+06     13s
      17       1924   6.9537878e+11  -1.1792491e+06     13s
      18       2051   6.9010278e+11  -1.1751591e+06     13s
      19       2177   6.8453478e+11  -1.1711436e+06     13s
      20       2310   6.7870278e+11  -1.1652446e+06     13s
      21       2437   6.7235478e+11  -1.1593941e+06     13s
      22       2567   6.6589878e+11  -1.1523233e+06     13s
      23       2704   6.5854278e+11  -1.1450641e+06     13s
      24       2829   6.5150678e+11  -1.1368812e+06     13s
      25       2957   6.4404278e+11  -1.1293717e+06     13s
      26       3090   6.3649478e+11  -1.1218523e+06     13s
      27       3227   6.2888678e+11  -1.1144327e+06     13s
      28       3353   6.2099479e+11  -1.1057732e+06     13s
      29       3481   6.1245879e+11  -1.0958445e+06     13s
      30       3608   6.0299079e+11  -1.0860187e+06     13s
      31       3742   5.9398279e+11  -1.0766781e+06     13s
      32       3871   5.8407479e+11  -1.0671841e+06     13s
      33       3997   5.7452280e+11  -1.0560521e+06     13s
      34       4130   5.6419480e+11  -1.0450923e+06     13s
      35       4258   5.5355880e+11  -1.0341018e+06     13s
      36       4383   5.4276280e+11  -1.0236247e+06     14s
      37       4519   5.3203481e+11  -1.0127949e+06     14s
      38       4654   5.2095481e+11  -1.0010475e+06     14s
      39       4786   5.0951882e+11  -9.8786164e+05     14s
      40       4910   4.9783482e+11  -9.7619667e+05     14s
      41       5044   4.8591083e+11  -9.6344609e+05     14s
      42       5170   4.7324683e+11  -9.4925712e+05     14s
      43       5299   4.6019484e+11  -9.3635825e+05     14s
      44       5439   4.4687084e+11  -9.2239696e+05     14s
      45       5568   4.3342685e+11  -9.0774789e+05     14s
      46       5701   4.1993086e+11  -8.9243856e+05     14s
      47       5832   4.0609487e+11  -8.7574319e+05     14s
      48       5963   3.9129488e+11  -8.5964448e+05     14s
      49       6096   3.7665089e+11  -8.4246517e+05     14s

Sifting complete

    6430    8.9339938e+02   0.000000e+00   0.000000e+00     14s

Root relaxation: objective 8.933994e+02, 6430 iterations, 2.24 seconds

    Nodes    |    Current Node    |     Objective Bounds      |     Work
 Expl Unexpl |  Obj  Depth IntInf | Incumbent    BestBd   Gap | It/Node Time

     0     0  893.39938    0    5  167.43834  893.39938   434%     -   14s
H    0     0                     855.2190264  893.39938  4.46%     -   15s
H    0     0                     891.7031517  893.39938  0.19%     -   16s
H    0     0                     892.1845139  893.39938  0.14%     -   16s
     0     0  893.39938    0    5  892.18451  893.39938  0.14%     -   17s
     0     0  893.39938    0    5  892.18451  893.39938  0.14%     -   18s
     0     0  893.33767    0   13  892.18451  893.33767  0.13%     -   18s
     0     0  893.33767    0    7  892.18451  893.33767  0.13%     -   18s
     0     0  893.33767    0    5  892.18451  893.33767  0.13%     -   18s
     0     0  893.33767    0    7  892.18451  893.33767  0.13%     -   18s
     0     0  893.33767    0    7  892.18451  893.33767  0.13%     -   18s
     0     0  893.00473    0    3  892.18451  893.00473  0.09%     -   18s
     0     0  892.75369    0    5  892.18451  892.75369  0.06%     -   18s

Explored 0 nodes (7625 simplex iterations) in 18.48 seconds
Thread count was 4 (of 4 available processors)

Solution count 6: 892.185 891.703 855.219 ... -0
Pool objective bound 892.185

Optimal solution found (tolerance 1.00e-04)
Best objective 8.921845138550e+02, best bound 8.921845138550e+02, gap 0.0000%

Gurobi 7.0.1 (win64, Python) logging started 11/13/16 20:45:13

Optimize a model with 53280 rows, 810000 columns and 6479100 nonzeros
Variable types: 0 continuous, 810000 integer (810000 binary)
Coefficient statistics:
  Matrix range     [1e+00, 2e+00]
  Objective range  [4e-04, 2e+02]
  Bounds range     [1e+00, 1e+00]
  RHS range        [1e+00, 1e+00]
Found heuristic solution: objective 167.438
Presolve removed 53100 rows and 56580 columns (presolve time = 5s) ...
Presolve removed 53220 rows and 620775 columns (presolve time = 10s) ...
Presolve removed 53220 rows and 620775 columns
Presolve time: 10.31s
Presolved: 60 rows, 189225 columns, 756900 nonzeros
Found heuristic solution: objective 58.6855671
Variable types: 0 continuous, 189225 integer (189225 binary)

Root simplex log...

Iteration    Objective       Primal Inf.    Dual Inf.      Time
       0    1.2254629e+06   7.568400e+05   0.000000e+00     11s

Starting sifting (using dual simplex for sub-problems)...

    Iter     Pivots    Primal Obj      Dual Obj        Time
       0          0     infinity     -1.2254629e+06     11s
       1         60   7.5257477e+11  -1.2217109e+06     11s
       2        170   7.4930677e+11  -1.2195863e+06     11s
       3        275   7.4630277e+11  -1.2173104e+06     11s
       4        383   7.4338277e+11  -1.2145392e+06     11s
       5        496   7.4009077e+11  -1.2114325e+06     11s
       6        606   7.3681077e+11  -1.2090195e+06     11s
       7        717   7.3336677e+11  -1.2067253e+06     11s
       8        835   7.2996277e+11  -1.2044236e+06     11s
       9        951   7.2679878e+11  -1.2021578e+06     11s
      10       1063   7.2373078e+11  -1.2002488e+06     11s
      11       1183   7.2068278e+11  -1.1980908e+06     12s
      12       1301   7.1719078e+11  -1.1958231e+06     12s
      13       1426   7.1359478e+11  -1.1931480e+06     12s
      14       1550   7.0957878e+11  -1.1904633e+06     12s
      15       1674   7.0549478e+11  -1.1874588e+06     12s
      16       1796   7.0080278e+11  -1.1835053e+06     12s
      17       1924   6.9537878e+11  -1.1792491e+06     12s
      18       2051   6.9010278e+11  -1.1751591e+06     12s
      19       2177   6.8453478e+11  -1.1711436e+06     12s
      20       2310   6.7870278e+11  -1.1652446e+06     12s
      21       2437   6.7235478e+11  -1.1593941e+06     12s
      22       2567   6.6589878e+11  -1.1523233e+06     12s
      23       2704   6.5854278e+11  -1.1450641e+06     12s
      24       2829   6.5150678e+11  -1.1368812e+06     12s
      25       2957   6.4404278e+11  -1.1293717e+06     12s
      26       3090   6.3649478e+11  -1.1218523e+06     12s
      27       3227   6.2888678e+11  -1.1144327e+06     12s
      28       3353   6.2099479e+11  -1.1057732e+06     12s
      29       3481   6.1245879e+11  -1.0958445e+06     12s
      30       3608   6.0299079e+11  -1.0860187e+06     12s
      31       3742   5.9398279e+11  -1.0766781e+06     12s
      32       3871   5.8407479e+11  -1.0671841e+06     12s
      33       3997   5.7452280e+11  -1.0560521e+06     12s
      34       4130   5.6419480e+11  -1.0450923e+06     12s
      35       4258   5.5355880e+11  -1.0341018e+06     12s
      36       4383   5.4276280e+11  -1.0236247e+06     12s
      37       4519   5.3203481e+11  -1.0127949e+06     12s
      38       4654   5.2095481e+11  -1.0010475e+06     13s
      39       4786   5.0951882e+11  -9.8786164e+05     13s
      40       4910   4.9783482e+11  -9.7619667e+05     13s
      41       5044   4.8591083e+11  -9.6344609e+05     13s
      42       5170   4.7324683e+11  -9.4925712e+05     13s
      43       5299   4.6019484e+11  -9.3635825e+05     13s
      44       5439   4.4687084e+11  -9.2239696e+05     13s
      45       5568   4.3342685e+11  -9.0774789e+05     13s
      46       5701   4.1993086e+11  -8.9243856e+05     13s
      47       5832   4.0609487e+11  -8.7574319e+05     13s
      48       5963   3.9129488e+11  -8.5964448e+05     13s
      49       6096   3.7665089e+11  -8.4246517e+05     13s

Sifting complete

    6430    8.9339938e+02   0.000000e+00   0.000000e+00     13s

Root relaxation: objective 8.933994e+02, 6430 iterations, 2.07 seconds

    Nodes    |    Current Node    |     Objective Bounds      |     Work
 Expl Unexpl |  Obj  Depth IntInf | Incumbent    BestBd   Gap | It/Node Time

     0     0  893.39938    0    5  167.43834  893.39938   434%     -   13s
H    0     0                     855.2190264  893.39938  4.46%     -   14s
H    0     0                     891.7031517  893.39938  0.19%     -   14s
H    0     0                     892.1845139  893.39938  0.14%     -   15s
     0     0  893.39938    0    5  892.18451  893.39938  0.14%     -   16s
     0     0  893.39938    0    5  892.18451  893.39938  0.14%     -   16s
     0     0  893.33767    0   13  892.18451  893.33767  0.13%     -   16s
     0     0  893.33767    0    7  892.18451  893.33767  0.13%     -   16s
     0     0  893.33767    0    5  892.18451  893.33767  0.13%     -   16s
     0     0  893.33767    0    7  892.18451  893.33767  0.13%     -   16s
     0     0  893.33767    0    7  892.18451  893.33767  0.13%     -   16s
     0     0  893.00473    0    3  892.18451  893.00473  0.09%     -   17s
     0     0  892.75369    0    5  892.18451  892.75369  0.06%     -   17s

Explored 0 nodes (7625 simplex iterations) in 17.07 seconds
Thread count was 4 (of 4 available processors)

Solution count 6: 892.185 891.703 855.219 ... -0
Pool objective bound 892.185

Optimal solution found (tolerance 1.00e-04)
Best objective 8.921845138550e+02, best bound 8.921845138550e+02, gap 0.0000%

Gurobi 7.0.1 (win64, Python) logging started 11/13/16 20:51:05

Optimize a model with 53280 rows, 810000 columns and 6479100 nonzeros
Variable types: 0 continuous, 810000 integer (810000 binary)
Coefficient statistics:
  Matrix range     [1e+00, 2e+00]
  Objective range  [4e-04, 2e+02]
  Bounds range     [1e+00, 1e+00]
  RHS range        [1e+00, 1e+00]
Found heuristic solution: objective 167.438
Presolve removed 53100 rows and 56580 columns (presolve time = 5s) ...
Presolve removed 53220 rows and 620775 columns (presolve time = 10s) ...
Presolve removed 53220 rows and 620775 columns
Presolve time: 10.43s
Presolved: 60 rows, 189225 columns, 756900 nonzeros
Found heuristic solution: objective 58.6855671
Variable types: 0 continuous, 189225 integer (189225 binary)

Root simplex log...

Iteration    Objective       Primal Inf.    Dual Inf.      Time
       0    1.2254629e+06   7.568400e+05   0.000000e+00     11s

Starting sifting (using dual simplex for sub-problems)...

    Iter     Pivots    Primal Obj      Dual Obj        Time
       0          0     infinity     -1.2254629e+06     11s
       1         60   7.5257477e+11  -1.2217109e+06     11s
       2        170   7.4930677e+11  -1.2195863e+06     11s
       3        275   7.4630277e+11  -1.2173104e+06     11s
       4        383   7.4338277e+11  -1.2145392e+06     11s
       5        496   7.4009077e+11  -1.2114325e+06     11s
       6        606   7.3681077e+11  -1.2090195e+06     11s
       7        717   7.3336677e+11  -1.2067253e+06     12s
       8        835   7.2996277e+11  -1.2044236e+06     12s
       9        951   7.2679878e+11  -1.2021578e+06     12s
      10       1063   7.2373078e+11  -1.2002488e+06     12s
      11       1183   7.2068278e+11  -1.1980908e+06     12s
      12       1301   7.1719078e+11  -1.1958231e+06     12s
      13       1426   7.1359478e+11  -1.1931480e+06     12s
      14       1550   7.0957878e+11  -1.1904633e+06     12s
      15       1674   7.0549478e+11  -1.1874588e+06     12s
      16       1796   7.0080278e+11  -1.1835053e+06     12s
      17       1924   6.9537878e+11  -1.1792491e+06     12s
      18       2051   6.9010278e+11  -1.1751591e+06     12s
      19       2177   6.8453478e+11  -1.1711436e+06     12s
      20       2310   6.7870278e+11  -1.1652446e+06     12s
      21       2437   6.7235478e+11  -1.1593941e+06     12s
      22       2567   6.6589878e+11  -1.1523233e+06     12s
      23       2704   6.5854278e+11  -1.1450641e+06     12s
      24       2829   6.5150678e+11  -1.1368812e+06     12s
      25       2957   6.4404278e+11  -1.1293717e+06     12s
      26       3090   6.3649478e+11  -1.1218523e+06     12s
      27       3227   6.2888678e+11  -1.1144327e+06     12s
      28       3353   6.2099479e+11  -1.1057732e+06     12s
      29       3481   6.1245879e+11  -1.0958445e+06     12s
      30       3608   6.0299079e+11  -1.0860187e+06     12s
      31       3742   5.9398279e+11  -1.0766781e+06     12s
      32       3871   5.8407479e+11  -1.0671841e+06     12s
      33       3997   5.7452280e+11  -1.0560521e+06     12s
      34       4130   5.6419480e+11  -1.0450923e+06     12s
      35       4258   5.5355880e+11  -1.0341018e+06     13s
      36       4383   5.4276280e+11  -1.0236247e+06     13s
      37       4519   5.3203481e+11  -1.0127949e+06     13s
      38       4654   5.2095481e+11  -1.0010475e+06     13s
      39       4786   5.0951882e+11  -9.8786164e+05     13s
      40       4910   4.9783482e+11  -9.7619667e+05     13s
      41       5044   4.8591083e+11  -9.6344609e+05     13s
      42       5170   4.7324683e+11  -9.4925712e+05     13s
      43       5299   4.6019484e+11  -9.3635825e+05     13s
      44       5439   4.4687084e+11  -9.2239696e+05     13s
      45       5568   4.3342685e+11  -9.0774789e+05     13s
      46       5701   4.1993086e+11  -8.9243856e+05     13s
      47       5832   4.0609487e+11  -8.7574319e+05     13s
      48       5963   3.9129488e+11  -8.5964448e+05     13s
      49       6096   3.7665089e+11  -8.4246517e+05     13s

Sifting complete

    6430    8.9339938e+02   0.000000e+00   0.000000e+00     13s

Root relaxation: objective 8.933994e+02, 6430 iterations, 2.08 seconds

    Nodes    |    Current Node    |     Objective Bounds      |     Work
 Expl Unexpl |  Obj  Depth IntInf | Incumbent    BestBd   Gap | It/Node Time

     0     0  893.39938    0    5  167.43834  893.39938   434%     -   13s
H    0     0                     855.2190264  893.39938  4.46%     -   14s
H    0     0                     891.7031517  893.39938  0.19%     -   14s
H    0     0                     892.1845139  893.39938  0.14%     -   15s
     0     0  893.39938    0    5  892.18451  893.39938  0.14%     -   16s
     0     0  893.39938    0    5  892.18451  893.39938  0.14%     -   17s
     0     0  893.33767    0   13  892.18451  893.33767  0.13%     -   17s
     0     0  893.33767    0    7  892.18451  893.33767  0.13%     -   17s
     0     0  893.33767    0    5  892.18451  893.33767  0.13%     -   17s
     0     0  893.33767    0    7  892.18451  893.33767  0.13%     -   17s
     0     0  893.33767    0    7  892.18451  893.33767  0.13%     -   17s
     0     0  893.00473    0    3  892.18451  893.00473  0.09%     -   17s
     0     0  892.75369    0    5  892.18451  892.75369  0.06%     -   17s

Explored 0 nodes (7625 simplex iterations) in 17.21 seconds
Thread count was 4 (of 4 available processors)

Solution count 6: 892.185 891.703 855.219 ... -0
Pool objective bound 892.185

Optimal solution found (tolerance 1.00e-04)
Best objective 8.921845138550e+02, best bound 8.921845138550e+02, gap 0.0000%

Gurobi 7.0.1 (win64, Python) logging started 11/13/16 20:52:02


Gurobi 7.0.1 (win64, Python) logging started 11/13/16 20:52:02

Optimize a model with 53280 rows, 810000 columns and 6479100 nonzeros
Variable types: 0 continuous, 810000 integer (810000 binary)
Coefficient statistics:
  Matrix range     [1e+00, 2e+00]
  Objective range  [4e-04, 2e+02]
  Bounds range     [1e+00, 1e+00]
  RHS range        [1e+00, 1e+00]
Found heuristic solution: objective 167.438
Presolve removed 53100 rows and 56580 columns (presolve time = 5s) ...
Presolve removed 53220 rows and 620775 columns (presolve time = 10s) ...
Presolve removed 53220 rows and 620775 columns
Presolve time: 10.27s
Presolved: 60 rows, 189225 columns, 756900 nonzeros
Found heuristic solution: objective 58.6855671
Variable types: 0 continuous, 189225 integer (189225 binary)

Root simplex log...

Iteration    Objective       Primal Inf.    Dual Inf.      Time
       0    1.2254629e+06   7.568400e+05   0.000000e+00     11s

Starting sifting (using dual simplex for sub-problems)...

    Iter     Pivots    Primal Obj      Dual Obj        Time
       0          0     infinity     -1.2254629e+06     11s
       1         60   7.5257477e+11  -1.2217109e+06     11s
       2        170   7.4930677e+11  -1.2195863e+06     11s
       3        275   7.4630277e+11  -1.2173104e+06     11s
       4        383   7.4338277e+11  -1.2145392e+06     11s
       5        496   7.4009077e+11  -1.2114325e+06     11s
       6        606   7.3681077e+11  -1.2090195e+06     11s
       7        717   7.3336677e+11  -1.2067253e+06     11s
       8        835   7.2996277e+11  -1.2044236e+06     11s
       9        951   7.2679878e+11  -1.2021578e+06     11s
      10       1063   7.2373078e+11  -1.2002488e+06     11s
      11       1183   7.2068278e+11  -1.1980908e+06     11s
      12       1301   7.1719078e+11  -1.1958231e+06     12s
      13       1426   7.1359478e+11  -1.1931480e+06     12s
      14       1550   7.0957878e+11  -1.1904633e+06     12s
      15       1674   7.0549478e+11  -1.1874588e+06     12s
      16       1796   7.0080278e+11  -1.1835053e+06     12s
      17       1924   6.9537878e+11  -1.1792491e+06     12s
      18       2051   6.9010278e+11  -1.1751591e+06     12s
      19       2177   6.8453478e+11  -1.1711436e+06     12s
      20       2310   6.7870278e+11  -1.1652446e+06     12s
      21       2437   6.7235478e+11  -1.1593941e+06     12s
      22       2567   6.6589878e+11  -1.1523233e+06     12s
      23       2704   6.5854278e+11  -1.1450641e+06     12s
      24       2829   6.5150678e+11  -1.1368812e+06     12s
      25       2957   6.4404278e+11  -1.1293717e+06     12s
      26       3090   6.3649478e+11  -1.1218523e+06     12s
      27       3227   6.2888678e+11  -1.1144327e+06     12s
      28       3353   6.2099479e+11  -1.1057732e+06     12s
      29       3481   6.1245879e+11  -1.0958445e+06     12s
      30       3608   6.0299079e+11  -1.0860187e+06     12s
      31       3742   5.9398279e+11  -1.0766781e+06     12s
      32       3871   5.8407479e+11  -1.0671841e+06     12s
      33       3997   5.7452280e+11  -1.0560521e+06     12s
      34       4130   5.6419480e+11  -1.0450923e+06     12s
      35       4258   5.5355880e+11  -1.0341018e+06     12s
      36       4383   5.4276280e+11  -1.0236247e+06     12s
      37       4519   5.3203481e+11  -1.0127949e+06     12s
      38       4654   5.2095481e+11  -1.0010475e+06     12s
      39       4786   5.0951882e+11  -9.8786164e+05     12s
      40       4910   4.9783482e+11  -9.7619667e+05     13s
      41       5044   4.8591083e+11  -9.6344609e+05     13s
      42       5170   4.7324683e+11  -9.4925712e+05     13s
      43       5299   4.6019484e+11  -9.3635825e+05     13s
      44       5439   4.4687084e+11  -9.2239696e+05     13s
      45       5568   4.3342685e+11  -9.0774789e+05     13s
      46       5701   4.1993086e+11  -8.9243856e+05     13s
      47       5832   4.0609487e+11  -8.7574319e+05     13s
      48       5963   3.9129488e+11  -8.5964448e+05     13s
      49       6096   3.7665089e+11  -8.4246517e+05     13s

Sifting complete

    6430    8.9339938e+02   0.000000e+00   0.000000e+00     13s

Root relaxation: objective 8.933994e+02, 6430 iterations, 2.04 seconds

    Nodes    |    Current Node    |     Objective Bounds      |     Work
 Expl Unexpl |  Obj  Depth IntInf | Incumbent    BestBd   Gap | It/Node Time

     0     0  893.39938    0    5  167.43834  893.39938   434%     -   13s
H    0     0                     855.2190264  893.39938  4.46%     -   13s
H    0     0                     891.7031517  893.39938  0.19%     -   14s
H    0     0                     892.1845139  893.39938  0.14%     -   15s
     0     0  893.39938    0    5  892.18451  893.39938  0.14%     -   16s
     0     0  893.39938    0    5  892.18451  893.39938  0.14%     -   16s
     0     0  893.33767    0   13  892.18451  893.33767  0.13%     -   16s
     0     0  893.33767    0    7  892.18451  893.33767  0.13%     -   16s
     0     0  893.33767    0    5  892.18451  893.33767  0.13%     -   16s
     0     0  893.33767    0    7  892.18451  893.33767  0.13%     -   16s
     0     0  893.33767    0    7  892.18451  893.33767  0.13%     -   16s
     0     0  893.00473    0    3  892.18451  893.00473  0.09%     -   16s
     0     0  892.75369    0    5  892.18451  892.75369  0.06%     -   16s

Explored 0 nodes (7625 simplex iterations) in 16.94 seconds
Thread count was 4 (of 4 available processors)

Solution count 6: 892.185 891.703 855.219 ... -0
Pool objective bound 892.185

Optimal solution found (tolerance 1.00e-04)
Best objective 8.921845138550e+02, best bound 8.921845138550e+02, gap 0.0000%

Gurobi 7.0.1 (win64, Python) logging started 11/13/16 20:54:06

Optimize a model with 53280 rows, 810000 columns and 6479100 nonzeros
Variable types: 0 continuous, 810000 integer (810000 binary)
Coefficient statistics:
  Matrix range     [1e+00, 2e+00]
  Objective range  [4e-04, 2e+02]
  Bounds range     [1e+00, 1e+00]
  RHS range        [1e+00, 1e+00]
Found heuristic solution: objective 167.438
Presolve removed 53100 rows and 56580 columns (presolve time = 5s) ...
Presolve removed 53220 rows and 620775 columns (presolve time = 11s) ...
Presolve removed 53220 rows and 620775 columns
Presolve time: 10.71s
Presolved: 60 rows, 189225 columns, 756900 nonzeros
Found heuristic solution: objective 58.6855671
Variable types: 0 continuous, 189225 integer (189225 binary)

Root simplex log...

Iteration    Objective       Primal Inf.    Dual Inf.      Time
       0    1.2254629e+06   7.568400e+05   0.000000e+00     12s

Starting sifting (using dual simplex for sub-problems)...

    Iter     Pivots    Primal Obj      Dual Obj        Time
       0          0     infinity     -1.2254629e+06     12s
       1         60   7.5257477e+11  -1.2217109e+06     12s
       2        170   7.4930677e+11  -1.2195863e+06     12s
       3        275   7.4630277e+11  -1.2173104e+06     12s
       4        383   7.4338277e+11  -1.2145392e+06     12s
       5        496   7.4009077e+11  -1.2114325e+06     12s
       6        606   7.3681077e+11  -1.2090195e+06     12s
       7        717   7.3336677e+11  -1.2067253e+06     12s
       8        835   7.2996277e+11  -1.2044236e+06     12s
       9        951   7.2679878e+11  -1.2021578e+06     12s
      10       1063   7.2373078e+11  -1.2002488e+06     12s
      11       1183   7.2068278e+11  -1.1980908e+06     12s
      12       1301   7.1719078e+11  -1.1958231e+06     12s
      13       1426   7.1359478e+11  -1.1931480e+06     12s
      14       1550   7.0957878e+11  -1.1904633e+06     12s
      15       1674   7.0549478e+11  -1.1874588e+06     12s
      16       1796   7.0080278e+11  -1.1835053e+06     12s
      17       1924   6.9537878e+11  -1.1792491e+06     12s
      18       2051   6.9010278e+11  -1.1751591e+06     12s
      19       2177   6.8453478e+11  -1.1711436e+06     12s
      20       2310   6.7870278e+11  -1.1652446e+06     12s
      21       2437   6.7235478e+11  -1.1593941e+06     12s
      22       2567   6.6589878e+11  -1.1523233e+06     12s
      23       2704   6.5854278e+11  -1.1450641e+06     12s
      24       2829   6.5150678e+11  -1.1368812e+06     13s
      25       2957   6.4404278e+11  -1.1293717e+06     13s
      26       3090   6.3649478e+11  -1.1218523e+06     13s
      27       3227   6.2888678e+11  -1.1144327e+06     13s
      28       3353   6.2099479e+11  -1.1057732e+06     13s
      29       3481   6.1245879e+11  -1.0958445e+06     13s
      30       3608   6.0299079e+11  -1.0860187e+06     13s
      31       3742   5.9398279e+11  -1.0766781e+06     13s
      32       3871   5.8407479e+11  -1.0671841e+06     13s
      33       3997   5.7452280e+11  -1.0560521e+06     13s
      34       4130   5.6419480e+11  -1.0450923e+06     13s
      35       4258   5.5355880e+11  -1.0341018e+06     13s
      36       4383   5.4276280e+11  -1.0236247e+06     13s
      37       4519   5.3203481e+11  -1.0127949e+06     13s
      38       4654   5.2095481e+11  -1.0010475e+06     13s
      39       4786   5.0951882e+11  -9.8786164e+05     13s
      40       4910   4.9783482e+11  -9.7619667e+05     13s
      41       5044   4.8591083e+11  -9.6344609e+05     13s
      42       5170   4.7324683e+11  -9.4925712e+05     13s
      43       5299   4.6019484e+11  -9.3635825e+05     13s
      44       5439   4.4687084e+11  -9.2239696e+05     13s
      45       5568   4.3342685e+11  -9.0774789e+05     13s
      46       5701   4.1993086e+11  -8.9243856e+05     13s
      47       5832   4.0609487e+11  -8.7574319e+05     13s
      48       5963   3.9129488e+11  -8.5964448e+05     13s
      49       6096   3.7665089e+11  -8.4246517e+05     13s

Sifting complete

    6430    8.9339938e+02   0.000000e+00   0.000000e+00     14s

Root relaxation: objective 8.933994e+02, 6430 iterations, 2.23 seconds

    Nodes    |    Current Node    |     Objective Bounds      |     Work
 Expl Unexpl |  Obj  Depth IntInf | Incumbent    BestBd   Gap | It/Node Time

     0     0  893.39938    0    5  167.43834  893.39938   434%     -   13s
H    0     0                     855.2190264  893.39938  4.46%     -   14s
H    0     0                     891.7031517  893.39938  0.19%     -   15s
H    0     0                     892.1845139  893.39938  0.14%     -   16s
     0     0  893.39938    0    5  892.18451  893.39938  0.14%     -   17s
     0     0  893.39938    0    5  892.18451  893.39938  0.14%     -   17s
     0     0  893.33767    0   13  892.18451  893.33767  0.13%     -   17s
     0     0  893.33767    0    7  892.18451  893.33767  0.13%     -   17s
     0     0  893.33767    0    5  892.18451  893.33767  0.13%     -   17s
     0     0  893.33767    0    7  892.18451  893.33767  0.13%     -   17s
     0     0  893.33767    0    7  892.18451  893.33767  0.13%     -   17s
     0     0  893.00473    0    3  892.18451  893.00473  0.09%     -   17s
     0     0  892.75369    0    5  892.18451  892.75369  0.06%     -   17s

Explored 0 nodes (7625 simplex iterations) in 17.93 seconds
Thread count was 4 (of 4 available processors)

Solution count 6: 892.185 891.703 855.219 ... -0
Pool objective bound 892.185

Optimal solution found (tolerance 1.00e-04)
Best objective 8.921845138550e+02, best bound 8.921845138550e+02, gap 0.0000%

Gurobi 7.0.1 (win64, Python) logging started 11/13/16 20:56:32

